(set-info :smt-lib-version 2.6)
(set-logic AUFBVFPDTNIRA)
(set-info :source |
Generated by: AdaCore
Generated on: 2020-03-06
Generator: SPARK
Application: Program verification for Ada
Target solver: CVC4
|)
(set-info :license "https://creativecommons.org/licenses/by/4.0/")
(set-info :category "industrial")
(set-info :status unknown)
;;; generated by SMT-LIB2 driver
;;; SMT-LIB2 driver: bit-vectors, common part
;;; SMT-LIB2: integer arithmetic
(declare-sort string 0)

(declare-datatypes ((tuple0 0))
(((Tuple0))))
(declare-sort us_private 0)

(declare-fun private__bool_eq (us_private us_private) Bool)

(declare-const us_null_ext__ us_private)

(declare-sort us_type_of_heap 0)

(declare-datatypes ((us_type_of_heap__ref 0))
(((us_type_of_heap__refqtmk (us_type_of_heap__content us_type_of_heap)))))
(declare-sort us_image 0)

(declare-datatypes ((int__ref 0))
(((int__refqtmk (int__content Int)))))
(declare-datatypes ((bool__ref 0))
(((bool__refqtmk (bool__content Bool)))))
(declare-datatypes ((us_fixed__ref 0))
(((us_fixed__refqtmk (us_fixed__content Int)))))
(declare-datatypes ((real__ref 0))
(((real__refqtmk (real__content Real)))))
(declare-datatypes ((us_private__ref 0))
(((us_private__refqtmk (us_private__content us_private)))))
(define-fun int__ref___projection ((a int__ref)) Int (int__content a))

(define-fun us_fixed__ref___projection ((a us_fixed__ref)) Int (us_fixed__content
                                                               a))

(define-fun bool__ref___projection ((a bool__ref)) Bool (bool__content a))

(define-fun real__ref___projection ((a real__ref)) Real (real__content a))

(define-fun us_private__ref___projection ((a us_private__ref)) us_private 
  (us_private__content a))

(define-fun length ((x Int) (y Int)) Int (ite (<= x y) (+ (- y x) 1) 0))

(declare-sort integer 0)

(declare-fun integerqtint (integer) Int)

;; integer'axiom
  (assert
  (forall ((i integer))
  (and (<= (- 2147483648) (integerqtint i)) (<= (integerqtint i) 2147483647))))

(define-fun in_range ((x Int)) Bool (and (<= (- 2147483648) x)
                                    (<= x 2147483647)))

(declare-fun attr__ATTRIBUTE_IMAGE (Int) us_image)

(declare-fun attr__ATTRIBUTE_VALUE__pre_check (us_image) Bool)

(declare-fun attr__ATTRIBUTE_VALUE (us_image) Int)

(declare-fun user_eq (integer integer) Bool)

(declare-const dummy integer)

(declare-datatypes ((integer__ref 0))
(((integer__refqtmk (integer__content integer)))))
(define-fun integer__ref_integer__content__projection ((a integer__ref)) integer 
  (integer__content a))

(declare-sort positive 0)

(declare-fun positiveqtint (positive) Int)

;; positive'axiom
  (assert
  (forall ((i positive))
  (and (<= 1 (positiveqtint i)) (<= (positiveqtint i) 2147483647))))

(define-fun in_range1 ((x Int)) Bool (and (<= 1 x) (<= x 2147483647)))

(declare-fun attr__ATTRIBUTE_IMAGE1 (Int) us_image)

(declare-fun attr__ATTRIBUTE_VALUE__pre_check1 (us_image) Bool)

(declare-fun attr__ATTRIBUTE_VALUE1 (us_image) Int)

(declare-fun user_eq1 (positive positive) Bool)

(declare-const dummy1 positive)

(declare-datatypes ((positive__ref 0))
(((positive__refqtmk (positive__content positive)))))
(define-fun positive__ref_positive__content__projection ((a positive__ref)) positive 
  (positive__content a))

(declare-sort character 0)

(define-fun in_range2 ((x Int)) Bool (and (<= 0 x) (<= x 255)))

(declare-fun attr__ATTRIBUTE_IMAGE2 (Int) us_image)

(declare-fun attr__ATTRIBUTE_VALUE__pre_check2 (us_image) Bool)

(declare-fun attr__ATTRIBUTE_VALUE2 (us_image) Int)

(declare-fun user_eq2 (character character) Bool)

(declare-const dummy2 character)

(declare-datatypes ((character__ref 0))
(((character__refqtmk (character__content character)))))
(define-fun character__ref_character__content__projection ((a character__ref)) character 
  (character__content a))

(declare-fun to_rep (character) Int)

(declare-fun of_rep (Int) character)

;; inversion_axiom
  (assert
  (forall ((x character))
  (! (= (of_rep (to_rep x)) x) :pattern ((to_rep x)) )))

;; range_axiom
  (assert
  (forall ((x character)) (! (in_range2 (to_rep x)) :pattern ((to_rep x)) )))

;; coerce_axiom
  (assert
  (forall ((x Int))
  (! (=> (in_range2 x) (= (to_rep (of_rep x)) x)) :pattern ((to_rep
                                                            (of_rep x))) )))

(declare-datatypes ((map__ref 0))
(((map__refqtmk (map__content (Array Int character))))))
(declare-fun slide ((Array Int character) Int Int) (Array Int character))

;; slide_eq
  (assert
  (forall ((a (Array Int character)))
  (forall ((first Int))
  (! (= (slide a first first) a) :pattern ((slide a first first)) ))))

;; slide_def
  (assert
  (forall ((a (Array Int character)))
  (forall ((old_first Int))
  (forall ((new_first Int))
  (forall ((i Int))
  (! (= (select (slide a old_first new_first) i) (select a (- i (- new_first old_first)))) :pattern ((select 
  (slide a old_first new_first) i)) ))))))

(define-fun bool_eq ((a (Array Int character)) (a__first Int) (a__last Int)
  (b (Array Int character)) (b__first Int)
  (b__last Int)) Bool (ite (and
                           (ite (<= a__first a__last)
                           (and (<= b__first b__last)
                           (= (- a__last a__first) (- b__last b__first)))
                           (< b__last b__first))
                           (forall ((temp___idx_91 Int))
                           (=>
                           (and (<= a__first temp___idx_91)
                           (<= temp___idx_91 a__last))
                           (= (to_rep (select a temp___idx_91)) (to_rep
                                                                (select b (+ (- b__first a__first) temp___idx_91)))))))
                      true false))

;; bool_eq_rev
  (assert
  (forall ((a (Array Int character)) (b (Array Int character)))
  (forall ((a__first Int) (a__last Int) (b__first Int) (b__last Int))
  (=> (= (bool_eq b b__first b__last a a__first a__last) true)
  (and
  (ite (<= a__first a__last)
  (and (<= b__first b__last) (= (- a__last a__first) (- b__last b__first)))
  (< b__last b__first))
  (forall ((temp___idx_91 Int))
  (=> (and (<= a__first temp___idx_91) (<= temp___idx_91 a__last))
  (= (to_rep (select a temp___idx_91)) (to_rep
                                       (select b (+ (- b__first a__first) temp___idx_91)))))))))))

(declare-fun concat1 ((Array Int character) Int Int (Array Int character) Int
  Int) (Array Int character))

;; concat_def
  (assert
  (forall ((a (Array Int character)) (b (Array Int character)))
  (forall ((a_first Int) (a_last Int) (b_first Int) (b_last Int))
  (forall ((i Int))
  (! (and
     (=> (and (<= a_first i) (<= i a_last))
     (= (select (concat1 a a_first a_last b b_first b_last) i) (select a i)))
     (=> (< a_last i)
     (= (select (concat1 a a_first a_last b b_first b_last) i) (select b (+ (- i a_last) (- b_first 1)))))) :pattern ((select 
  (concat1 a a_first a_last b b_first b_last) i)) )))))

(declare-fun concat_singleton_left (character Int (Array Int character) Int
  Int) (Array Int character))

;; concat_singleton_left_def
  (assert
  (forall ((a character))
  (forall ((b (Array Int character)))
  (forall ((a_first Int) (b_first Int) (b_last Int))
  (! (and
     (= (select (concat_singleton_left a a_first b b_first b_last) a_first) a)
     (forall ((i Int))
     (! (=> (< a_first i)
        (= (select (concat_singleton_left a a_first b b_first b_last) i) (select b (+ (- i a_first) (- b_first 1))))) :pattern ((select 
     (concat_singleton_left a a_first b b_first b_last) i)) ))) :pattern (
  (concat_singleton_left a a_first b b_first b_last)) )))))

(declare-fun concat_singleton_right ((Array Int character) Int Int
  character) (Array Int character))

;; concat_singleton_right_def
  (assert
  (forall ((a (Array Int character)))
  (forall ((b character))
  (forall ((a_first Int) (a_last Int))
  (! (and
     (= (select (concat_singleton_right a a_first a_last b) (+ a_last 1)) b)
     (forall ((i Int))
     (! (=> (and (<= a_first i) (<= i a_last))
        (= (select (concat_singleton_right a a_first a_last b) i) (select a i))) :pattern ((select 
     (concat_singleton_right a a_first a_last b) i)) :pattern ((select a i)) ))) :pattern (
  (concat_singleton_right a a_first a_last b)) )))))

(declare-fun concat_singletons (character Int
  character) (Array Int character))

;; concat_singletons_def
  (assert
  (forall ((a character) (b character))
  (forall ((a_first Int))
  (! (and (= (select (concat_singletons a a_first b) a_first) a)
     (= (select (concat_singletons a a_first b) (+ a_first 1)) b)) :pattern (
  (concat_singletons a a_first b)) ))))

(declare-fun singleton1 (character Int) (Array Int character))

;; singleton_def
  (assert
  (forall ((v character))
  (forall ((i Int))
  (! (= (select (singleton1 v i) i) v) :pattern ((select (singleton1 v i) i)) ))))

(define-fun to_rep1 ((x integer)) Int (integerqtint x))

(declare-fun of_rep1 (Int) integer)

;; inversion_axiom
  (assert
  (forall ((x integer))
  (! (= (of_rep1 (to_rep1 x)) x) :pattern ((to_rep1 x)) )))

;; range_axiom
  (assert
  (forall ((x integer)) (! (in_range (to_rep1 x)) :pattern ((to_rep1 x)) )))

;; coerce_axiom
  (assert
  (forall ((x Int))
  (! (=> (in_range x) (= (to_rep1 (of_rep1 x)) x)) :pattern ((to_rep1
                                                             (of_rep1 x))) )))

(declare-sort t 0)

(declare-fun first (t) integer)

(declare-fun last (t) integer)

(declare-fun mk (Int Int) t)

;; mk_def
  (assert
  (forall ((f Int) (l Int))
  (! (=> (in_range f)
     (=> (in_range l)
     (and (= (to_rep1 (first (mk f l))) f) (= (to_rep1 (last (mk f l))) l)))) :pattern (
  (mk f l)) )))

(define-fun dynamic_property ((range_first Int) (range_last Int) (low Int)
  (high Int)) Bool (and (in_range low)
                   (and (in_range high)
                   (=> (<= low high) (and (in_range1 low) (in_range1 high))))))

(declare-datatypes ((us_t 0))
(((us_tqtmk (elts (Array Int character))(rt t)))))
(define-fun to_array ((a us_t)) (Array Int character) (elts a))

(define-fun of_array ((a (Array Int character)) (f Int)
  (l Int)) us_t (us_tqtmk a (mk f l)))

(define-fun first1 ((a us_t)) Int (to_rep1 (first (rt a))))

(define-fun last1 ((a us_t)) Int (to_rep1 (last (rt a))))

(define-fun length1 ((a us_t)) Int (ite (<= (first1 a) (last1 a))
                                   (+ (- (last1 a) (first1 a)) 1) 0))

(declare-const value__size Int)

(declare-const object__size Int)

(declare-const component__size Int)

(declare-const alignment Int)

;; value__size_axiom
  (assert (<= 0 value__size))

;; object__size_axiom
  (assert (<= 0 object__size))

;; component__size_axiom
  (assert (<= 0 component__size))

;; alignment_axiom
  (assert (<= 0 alignment))

(define-fun bool_eq1 ((x us_t)
  (y us_t)) Bool (bool_eq (elts x) (to_rep1 (first (rt x)))
                 (to_rep1 (last (rt x))) (elts y) (to_rep1 (first (rt y)))
                 (to_rep1 (last (rt y)))))

(declare-fun user_eq3 (us_t us_t) Bool)

(declare-const dummy3 us_t)

(declare-datatypes ((string____ref 0))
(((string____refqtmk (string____content us_t)))))
(define-fun string____ref_string____content__projection ((a string____ref)) us_t 
  (string____content a))

(declare-const attr__ATTRIBUTE_ADDRESS Int)

(declare-fun size (Int) Int)

(declare-fun size__function_guard (Int Int) Bool)

(define-fun dynamic_invariant ((temp___expr_18 Int) (temp___is_init_14 Bool)
  (temp___skip_constant_15 Bool) (temp___do_toplevel_16 Bool)
  (temp___do_typ_inv_17 Bool)) Bool (=>
                                    (or (= temp___is_init_14 true)
                                    (<= (- 2147483648) 2147483647)) (in_range
                                    temp___expr_18)))

(declare-sort tlastS 0)

(declare-fun tlastSqtint (tlastS) Int)

;; tlastS'axiom
  (assert
  (forall ((i tlastS)) (and (<= 0 (tlastSqtint i)) (<= (tlastSqtint i) 200))))

(define-fun in_range3 ((x Int)) Bool (and (<= 0 x) (<= x 200)))

(declare-fun attr__ATTRIBUTE_IMAGE3 (Int) us_image)

(declare-fun attr__ATTRIBUTE_VALUE__pre_check3 (us_image) Bool)

(declare-fun attr__ATTRIBUTE_VALUE3 (us_image) Int)

(declare-fun user_eq4 (tlastS tlastS) Bool)

(declare-const dummy4 tlastS)

(declare-datatypes ((tlastS__ref 0))
(((tlastS__refqtmk (tlastS__content tlastS)))))
(define-fun tlastS__ref_tlastS__content__projection ((a tlastS__ref)) tlastS 
  (tlastS__content a))

(define-fun dynamic_invariant1 ((temp___expr_164 Int)
  (temp___is_init_160 Bool) (temp___skip_constant_161 Bool)
  (temp___do_toplevel_162 Bool)
  (temp___do_typ_inv_163 Bool)) Bool (=>
                                     (or (= temp___is_init_160 true)
                                     (<= 0 200)) (in_range3 temp___expr_164)))

;; size__post_axiom
  (assert
  (forall ((stack__last Int))
  (! (=> (dynamic_invariant1 stack__last true true true true)
     (let ((result (size stack__last)))
     (=> (size__function_guard result stack__last) (dynamic_invariant result
     true false true true)))) :pattern ((size stack__last)) )))

;; size__def_axiom
  (assert
  (forall ((stack__last Int))
  (! (=> (dynamic_invariant1 stack__last true true true true)
     (= (size stack__last) stack__last)) :pattern ((size stack__last)) )))

(declare-datatypes ((us_split_fields 0))
(((us_split_fieldsqtmk (rec__types__value__e integer)))))
(define-fun us_split_fields_rec__types__value__e__projection ((a us_split_fields)) integer 
  (rec__types__value__e a))

(declare-datatypes ((us_split_fields__ref 0))
(((us_split_fields__refqtmk (us_split_fields__content us_split_fields)))))
(define-fun us_split_fields__ref___split_fields__content__projection ((a us_split_fields__ref)) us_split_fields 
  (us_split_fields__content a))

(declare-datatypes ((us_rep 0))
(((us_repqtmk (us_split_fields1 us_split_fields)))))
(define-fun us_rep___split_fields__projection ((a us_rep)) us_split_fields 
  (us_split_fields1 a))

(define-fun bool_eq2 ((a us_rep)
  (b us_rep)) Bool (ite (= (to_rep1
                           (rec__types__value__e (us_split_fields1 a))) 
                   (to_rep1 (rec__types__value__e (us_split_fields1 b))))
                   true false))

(declare-const value__size1 Int)

(declare-const object__size1 Int)

(declare-const alignment1 Int)

;; value__size_axiom
  (assert (<= 0 value__size1))

;; object__size_axiom
  (assert (<= 0 object__size1))

;; alignment_axiom
  (assert (<= 0 alignment1))

(declare-const types__value__e__first__bit Int)

(declare-const types__value__e__last__bit Int)

(declare-const types__value__e__position Int)

;; types__value__e__first__bit_axiom
  (assert (<= 0 types__value__e__first__bit))

;; types__value__e__last__bit_axiom
  (assert (< types__value__e__first__bit types__value__e__last__bit))

;; types__value__e__position_axiom
  (assert (<= 0 types__value__e__position))

(declare-fun user_eq5 (us_rep us_rep) Bool)

(declare-const dummy5 us_rep)

(declare-datatypes ((value__ref 0))
(((value__refqtmk (value__content us_rep)))))
(define-fun value__ref_value__content__projection ((a value__ref)) us_rep 
  (value__content a))

(declare-const v us_rep)

(declare-const attr__ATTRIBUTE_ADDRESS1 Int)

(declare-fun full (Int) Bool)

(declare-fun full__function_guard (Bool Int) Bool)

;; full__post_axiom
  (assert true)

;; full__def_axiom
  (assert
  (forall ((stack__last Int))
  (! (= (= (full stack__last) true) (<= 200 stack__last)) :pattern ((full
                                                                    stack__last)) )))

(declare-datatypes ((map__ref1 0))
(((map__refqtmk1 (map__content1 (Array Int us_rep))))))
(declare-fun slide1 ((Array Int us_rep) Int Int) (Array Int us_rep))

;; slide_eq
  (assert
  (forall ((a (Array Int us_rep)))
  (forall ((first2 Int))
  (! (= (slide1 a first2 first2) a) :pattern ((slide1 a first2 first2)) ))))

;; slide_def
  (assert
  (forall ((a (Array Int us_rep)))
  (forall ((old_first Int))
  (forall ((new_first Int))
  (forall ((i Int))
  (! (= (select (slide1 a old_first new_first) i) (select a (- i (- new_first old_first)))) :pattern ((select 
  (slide1 a old_first new_first) i)) ))))))

(define-fun bool_eq3 ((a (Array Int us_rep)) (a__first Int) (a__last Int)
  (b (Array Int us_rep)) (b__first Int)
  (b__last Int)) Bool (ite (and
                           (ite (<= a__first a__last)
                           (and (<= b__first b__last)
                           (= (- a__last a__first) (- b__last b__first)))
                           (< b__last b__first))
                           (forall ((temp___idx_158 Int))
                           (=>
                           (and (<= a__first temp___idx_158)
                           (<= temp___idx_158 a__last))
                           (= (bool_eq2 (select a temp___idx_158)
                              (select b (+ (- b__first a__first) temp___idx_158))) true))))
                      true false))

;; bool_eq_rev
  (assert
  (forall ((a (Array Int us_rep)) (b (Array Int us_rep)))
  (forall ((a__first Int) (a__last Int) (b__first Int) (b__last Int))
  (=> (= (bool_eq3 b b__first b__last a a__first a__last) true)
  (and
  (ite (<= a__first a__last)
  (and (<= b__first b__last) (= (- a__last a__first) (- b__last b__first)))
  (< b__last b__first))
  (forall ((temp___idx_158 Int))
  (=> (and (<= a__first temp___idx_158) (<= temp___idx_158 a__last))
  (= (bool_eq2 (select a temp___idx_158)
     (select b (+ (- b__first a__first) temp___idx_158))) true))))))))

(declare-const attr__ATTRIBUTE_ADDRESS2 Int)

(define-fun dynamic_invariant2 ((temp___expr_96 us_t)
  (temp___is_init_92 Bool) (temp___skip_constant_93 Bool)
  (temp___do_toplevel_94 Bool)
  (temp___do_typ_inv_95 Bool)) Bool (=>
                                    (not (= temp___skip_constant_93 true))
                                    (dynamic_property 1 2147483647
                                    (first1 temp___expr_96)
                                    (last1 temp___expr_96))))

(declare-fun to_string (us_rep) us_t)

(declare-fun to_string__function_guard (us_t us_rep) Bool)

;; to_string__post_axiom
  (assert
  (forall ((v1 us_rep))
  (! (let ((result (to_string v1)))
     (=> (to_string__function_guard result v1) (dynamic_invariant2 result
     true false true true))) :pattern ((to_string v1)) )))

(declare-sort ttabD1 0)

(declare-fun ttabD1qtint (ttabD1) Int)

;; ttabD1'axiom
  (assert
  (forall ((i ttabD1)) (and (<= 1 (ttabD1qtint i)) (<= (ttabD1qtint i) 200))))

(define-fun in_range4 ((x Int)) Bool (and (<= 1 x) (<= x 200)))

(declare-fun attr__ATTRIBUTE_IMAGE4 (Int) us_image)

(declare-fun attr__ATTRIBUTE_VALUE__pre_check4 (us_image) Bool)

(declare-fun attr__ATTRIBUTE_VALUE4 (us_image) Int)

(declare-fun user_eq6 (ttabD1 ttabD1) Bool)

(declare-const dummy6 ttabD1)

(declare-datatypes ((ttabD1__ref 0))
(((ttabD1__refqtmk (ttabD1__content ttabD1)))))
(define-fun ttabD1__ref_ttabD1__content__projection ((a ttabD1__ref)) ttabD1 
  (ttabD1__content a))

(declare-fun temp___String_Literal_200 (tuple0) (Array Int character))

;; temp___String_Literal_200__def_axiom
  (assert
  (forall ((us_void_param tuple0))
  (! (and
     (and
     (= (to_rep (select (temp___String_Literal_200 us_void_param) 1)) 80)
     (= (to_rep (select (temp___String_Literal_200 us_void_param) 2)) 117))
     (and
     (and
     (and
     (and
     (= (to_rep (select (temp___String_Literal_200 us_void_param) 3)) 115)
     (= (to_rep (select (temp___String_Literal_200 us_void_param) 4)) 104))
     (= (to_rep (select (temp___String_Literal_200 us_void_param) 5)) 105))
     (and
     (= (to_rep (select (temp___String_Literal_200 us_void_param) 6)) 110)
     (= (to_rep (select (temp___String_Literal_200 us_void_param) 7)) 103)))
     (and
     (and
     (= (to_rep (select (temp___String_Literal_200 us_void_param) 8)) 32)
     (= (to_rep (select (temp___String_Literal_200 us_void_param) 9)) 45))
     (and
     (= (to_rep (select (temp___String_Literal_200 us_void_param) 10)) 62)
     (= (to_rep (select (temp___String_Literal_200 us_void_param) 11)) 32))))) :pattern (
  (temp___String_Literal_200 us_void_param)) )))

(define-fun dynamic_invariant3 ((temp___expr_46 Int) (temp___is_init_42 Bool)
  (temp___skip_constant_43 Bool) (temp___do_toplevel_44 Bool)
  (temp___do_typ_inv_45 Bool)) Bool (=>
                                    (or (= temp___is_init_42 true)
                                    (<= 1 2147483647)) (in_range1
                                    temp___expr_46)))

(define-fun dynamic_invariant4 ((temp___expr_74 Int) (temp___is_init_70 Bool)
  (temp___skip_constant_71 Bool) (temp___do_toplevel_72 Bool)
  (temp___do_typ_inv_73 Bool)) Bool (=>
                                    (or (= temp___is_init_70 true)
                                    (<= 0 255)) (in_range2 temp___expr_74)))

(assert
;; defqtvc
 ;; File "stack.ads", line 18, characters 0-0
  (not
  (forall ((last2 Int) (spark__branch Bool))
  (=> (dynamic_invariant1 last2 true false true true)
  (=> (forall ((last3 Int)) (full__function_guard (full last3) last3))
  (=> (not (= (full last2) true))
  (=> (= spark__branch (ite (= last2 200) true false))
  (=> (not (= spark__branch true))
  (let ((o v))
  (let ((temp___202 (to_string o)))
  (=>
  (and (to_string__function_guard temp___202 o) (dynamic_invariant2
  temp___202 true false true true))
  (=> (in_range1
  (- (+ 1 (+ (length 1 11) (length (first1 temp___202) (last1 temp___202)))) 1))
  (let ((o1 (+ last2 1)))
  (=> (in_range3 o1)
  (forall ((last3 Int))
  (=> (= last3 o1)
  (=> (and (<= 1 last3) (<= last3 200))
  (=> (forall ((last4 Int)) (size__function_guard (size last4) last4))
  (in_range (+ (size last2) 1))))))))))))))))))))
(check-sat)
(exit)
